c Maximum weighted clique instances generated from exactcolors.
c cutoff: 1979247.
c A clique of value > scalef (1979247) defines an improving stable sets for coloring.
p edge 31 240
e 1 8
e 1 15
e 1 16
e 1 23
e 1 30
e 1 31
e 2 9
e 2 15
e 2 17
e 2 24
e 2 30
e 2 31
e 3 10
e 3 15
e 3 18
e 3 25
e 3 30
e 3 31
e 4 11
e 4 15
e 4 19
e 4 26
e 4 30
e 4 31
e 5 12
e 5 15
e 5 20
e 5 27
e 5 30
e 5 31
e 6 13
e 6 15
e 6 21
e 6 28
e 6 30
e 6 31
e 7 14
e 7 15
e 7 22
e 7 29
e 7 30
e 7 31
e 8 9
e 8 10
e 8 11
e 8 12
e 8 13
e 8 14
e 8 16
e 8 23
e 8 24
e 8 25
e 8 26
e 8 27
e 8 28
e 8 29
e 8 31
e 9 10
e 9 11
e 9 12
e 9 13
e 9 14
e 9 17
e 9 23
e 9 24
e 9 25
e 9 26
e 9 27
e 9 28
e 9 29
e 9 31
e 10 11
e 10 12
e 10 13
e 10 14
e 10 18
e 10 23
e 10 24
e 10 25
e 10 26
e 10 27
e 10 28
e 10 29
e 10 31
e 11 12
e 11 13
e 11 14
e 11 19
e 11 23
e 11 24
e 11 25
e 11 26
e 11 27
e 11 28
e 11 29
e 11 31
e 12 13
e 12 14
e 12 20
e 12 23
e 12 24
e 12 25
e 12 26
e 12 27
e 12 28
e 12 29
e 12 31
e 13 14
e 13 21
e 13 23
e 13 24
e 13 25
e 13 26
e 13 27
e 13 28
e 13 29
e 13 31
e 14 22
e 14 23
e 14 24
e 14 25
e 14 26
e 14 27
e 14 28
e 14 29
e 14 31
e 15 16
e 15 17
e 15 18
e 15 19
e 15 20
e 15 21
e 15 22
e 15 30
e 15 31
e 16 17
e 16 18
e 16 19
e 16 20
e 16 21
e 16 22
e 16 23
e 16 24
e 16 25
e 16 26
e 16 27
e 16 28
e 16 29
e 16 30
e 17 18
e 17 19
e 17 20
e 17 21
e 17 22
e 17 23
e 17 24
e 17 25
e 17 26
e 17 27
e 17 28
e 17 29
e 17 30
e 18 19
e 18 20
e 18 21
e 18 22
e 18 23
e 18 24
e 18 25
e 18 26
e 18 27
e 18 28
e 18 29
e 18 30
e 19 20
e 19 21
e 19 22
e 19 23
e 19 24
e 19 25
e 19 26
e 19 27
e 19 28
e 19 29
e 19 30
e 20 21
e 20 22
e 20 23
e 20 24
e 20 25
e 20 26
e 20 27
e 20 28
e 20 29
e 20 30
e 21 22
e 21 23
e 21 24
e 21 25
e 21 26
e 21 27
e 21 28
e 21 29
e 21 30
e 22 23
e 22 24
e 22 25
e 22 26
e 22 27
e 22 28
e 22 29
e 22 30
e 23 24
e 23 25
e 23 26
e 23 27
e 23 28
e 23 29
e 23 30
e 24 25
e 24 26
e 24 27
e 24 28
e 24 29
e 24 30
e 25 26
e 25 27
e 25 28
e 25 29
e 25 30
e 26 27
e 26 28
e 26 29
e 26 30
e 27 28
e 27 29
e 27 30
e 28 29
e 28 30
e 29 30
n 1 1458987
n 2 1458987
n 3 1458987
n 4 1458987
n 5 1458987
n 6 1458987
n 7 1458987
n 8 243164
n 9 243164
n 10 243164
n 11 243164
n 12 243164
n 13 243164
n 14 243164
n 15 243164
n 16 237509
n 17 237509
n 18 237509
n 19 237509
n 20 237509
n 21 237509
n 22 237509
n 23 39584
n 24 39584
n 25 39584
n 26 39584
n 27 39584
n 28 39584
n 29 39584
n 30 39584
n 31 277094
